%nproc=20
%mem=80GB
%chk=5core_1e.chk
#p td=(nstates=40) b3lyp/genecp geom=connectivity

yb

1 1
 Au                 4.04760000    3.52520000    8.43470000
 Au                 3.90980000    6.45390000    9.36980000
 Au                 6.26060000    7.94750000    8.33170000
 Au                 8.03220000    7.03770000    6.05060000
 Au                 8.70300000    4.35100000    5.48800000
 N                  5.96400000    4.29700000    8.31370000
 N                  4.49540000    7.14480000    7.45650000
 C                  7.08430000    4.26950000    9.12890000
 C                  7.19590000    3.73290000   10.40040000
 H                  6.46390000    3.36600000   10.83880000
 C                  8.45760000    3.77420000   10.99190000
 H                  8.57530000    3.41650000   11.84310000
 C                  9.54650000    4.33370000   10.32090000
 H                 10.37930000    4.35200000   10.73370000
 C                  9.40640000    4.86560000    9.07030000
 H                 10.14070000    5.24170000    8.63950000
 C                  8.18190000    4.84730000    8.44730000
 C                  7.67870000    5.27830000    7.11730000
 C                  6.32610000    4.90230000    7.18480000
 C                  5.26680000    5.18660000    6.13700000
 C                  5.13980000    4.38870000    4.99750000
 H                  5.68440000    3.64120000    4.89100000
 C                  4.19920000    4.70970000    4.02030000
 H                  4.10980000    4.17770000    3.26060000
 C                  3.41180000    5.81030000    4.18990000
 H                  2.79100000    6.03040000    3.53240000
 C                  3.50970000    6.60830000    5.30230000
 H                  2.95780000    7.35120000    5.38640000
 C                  4.43060000    6.31020000    6.31260000
 P                  2.00220000    2.63230000    8.24770000
 C                  0.70030000    3.80630000    7.77030000
 C                 -0.60410000    3.35690000    7.56610000
 H                 -0.81020000    2.46260000    7.71770000
 C                 -1.58300000    4.20980000    7.14730000
 H                 -2.43760000    3.89800000    6.95060000
 C                 -1.28150000    5.51220000    7.02870000
 H                 -1.96610000    6.11300000    6.84100000
 C                  0.00290000    5.99830000    7.17430000
 H                  0.19280000    6.89260000    7.00470000
 C                  0.99000000    5.13620000    7.57060000
 H                  1.85330000    5.45260000    7.70720000
 C                  1.88540000    1.44910000    6.90260000
 C                  2.33740000    1.85730000    5.62510000
 H                  2.81140000    2.65060000    5.53950000
 C                  2.08970000    1.09140000    4.49910000
 H                  2.36640000    1.37120000    3.65700000
 C                  1.40610000   -0.12380000    4.66880000
 H                  1.23110000   -0.65120000    3.92270000
 C                  1.00550000   -0.54110000    5.85170000
 H                  0.56670000   -1.35740000    5.92080000
 C                  1.22690000    0.22010000    7.01670000
 H                  0.93840000   -0.08710000    7.84690000
 C                  1.47120000    1.78390000    9.69790000
 C                  2.20400000    0.66950000   10.16770000
 H                  2.96120000    0.40810000    9.69640000
 C                  1.85170000   -0.04130000   11.28010000
 H                  2.35550000   -0.77040000   11.55640000
 C                  0.72850000    0.35310000   11.98570000
 H                  0.47230000   -0.13760000   12.73330000
 C                 -0.00900000    1.43080000   11.62240000
 H                 -0.75100000    1.68760000   12.12080000
 C                  0.36920000    2.15540000   10.47550000
 H                 -0.12710000    2.89830000   10.22780000
 P                  3.25180000    6.07490000   11.49330000
 C                  3.44770000    7.57590000   12.50360000
 C                  3.61200000    8.78650000   11.90610000
 H                  3.66640000    8.85530000   10.97990000
 C                  3.68810000    9.91470000   12.70030000
 H                  3.85140000   10.74010000   12.29650000
 C                  3.54720000    9.83670000   14.02140000
 H                  3.52710000   10.62090000   14.51380000
 C                  3.43330000    8.62150000   14.68490000
 H                  3.37890000    8.57100000   15.61110000
 C                  3.39140000    7.49330000   13.90280000
 H                  3.32650000    6.65870000   14.30960000
 C                  1.47240000    5.68190000   11.70050000
 C                  0.57940000    6.16800000   10.80570000
 H                  0.87750000    6.62660000   10.05510000
 C                 -0.78920000    5.97540000   11.00990000
 H                 -1.40610000    6.26890000   10.37940000
 C                 -1.20730000    5.35170000   12.14180000
 H                 -2.11890000    5.28290000   12.31000000
 C                 -0.32240000    4.82890000   13.04560000
 H                 -0.63070000    4.36120000   13.78720000
 C                  1.03800000    4.99860000   12.84440000
 H                  1.65200000    4.66380000   13.45840000
 C                  4.11960000    4.75100000   12.30550000
 C                  5.26110000    4.99860000   13.10710000
 H                  5.56250000    5.87450000   13.20320000
 C                  5.94370000    3.98510000   13.74810000
 H                  6.66000000    4.18230000   14.30960000
 C                  5.54800000    2.67820000   13.54400000
 H                  5.99450000    1.98570000   13.97480000
 C                  4.48450000    2.39380000   12.69730000
 H                  4.24490000    1.50880000   12.53510000
 C                  3.78480000    3.41650000   12.09680000
 H                  3.07000000    3.21010000   11.53830000
 P                  7.59300000    9.15850000    9.67080000
 C                  6.97460000   10.87770000    9.75640000
 C                  7.80210000   11.86830000   10.31030000
 H                  8.64520000   11.64350000   10.63310000
 C                  7.36160000   13.16610000   10.37340000
 H                  7.88650000   13.81730000   10.78470000
 C                  6.14170000   13.51460000    9.82550000
 H                  5.87040000   14.40420000    9.81040000
 C                  5.32430000   12.52400000    9.29700000
 H                  4.47450000   12.73040000    8.98030000
 C                  5.81020000   11.18950000    9.24600000
 H                  5.29350000   10.52920000    8.84520000
 C                  9.36210000    9.34600000    9.21750000
 C                  9.62450000   10.03850000    8.06900000
 H                  8.90700000   10.34570000    7.56310000
 C                 10.89830000   10.29990000    7.62620000
 H                 11.05230000   10.79060000    6.85150000
 C                 11.95520000    9.79540000    8.39930000
 H                 12.83070000    9.90090000    8.10810000
 C                 11.71450000    9.16260000    9.54920000
 H                 12.42550000    8.89200000   10.08370000
 C                 10.40990000    8.90120000    9.95910000
 H                 10.25550000    8.42430000   10.74120000
 C                  7.58620000    8.54350000   11.39870000
 C                  7.09100000    9.29560000   12.44810000
 H                  6.72740000   10.13480000   12.28740000
 C                  7.13190000    8.80030000   13.72410000
 H                  6.76020000    9.28640000   14.42370000
 C                  7.73560000    7.55750000   13.97330000
 H                  7.82690000    7.25030000   14.84700000
 C                  8.18800000    6.79630000   12.93900000
 H                  8.55800000    5.96160000   13.10110000
 C                  8.09710000    7.27320000   11.65840000
 H                  8.38010000    6.73670000   10.94990000
 P                  8.37850000    8.73930000    4.57420000
 C                 10.14690000    8.93790000    4.18840000
 C                 10.58550000    9.74040000    3.14350000
 H                  9.97130000   10.14400000    2.57610000
 C                 11.93620000    9.92840000    2.94840000
 H                 12.23700000   10.47870000    2.26080000
 C                 12.83170000    9.30930000    3.76810000
 H                 13.74170000    9.41480000    3.62990000
 C                 12.39930000    8.53890000    4.79490000
 H                 13.02260000    8.12160000    5.34430000
 C                 11.04010000    8.36010000    5.03960000
 H                 10.74870000    7.85560000    5.76470000
 C                  7.55750000    8.39220000    2.98890000
 C                  7.14420000    9.40110000    2.13020000
 H                  7.25810000   10.28610000    2.38690000
 C                  6.56810000    9.12590000    0.89920000
 H                  6.25690000    9.81380000    0.35130000
 C                  6.47360000    7.81430000    0.51790000
 H                  6.09410000    7.60800000   -0.30470000
 C                  6.93040000    6.79170000    1.33010000
 H                  6.89080000    5.91120000    1.03730000
 C                  7.44740000    7.08980000    2.58810000
 H                  7.71870000    6.40190000    3.15410000
 C                  7.75600000   10.38700000    5.08160000
 C                  6.47160000   10.43290000    5.53650000
 H                  5.95360000    9.65790000    5.55750000
 C                  5.94280000   11.63440000    5.96880000
 H                  5.06430000   11.66650000    6.27360000
 C                  6.68480000   12.77170000    5.95530000
 H                  6.31030000   13.57420000    6.23910000
 C                  8.00230000   12.73960000    5.51850000
 H                  8.51860000   13.51000000    5.52450000
 C                  8.55340000   11.52430000    5.06660000
 H                  9.43270000   11.48300000    4.76640000
 P                  9.80170000    3.17890000    3.88210000
 C                 11.32600000    4.02180000    3.26210000
 C                 11.13020000    5.12700000    2.47250000
 H                 10.27330000    5.38840000    2.22180000
 C                 12.24650000    5.85620000    2.05370000
 H                 12.13090000    6.59910000    1.50420000
 C                 13.46850000    5.50310000    2.43200000
 H                 14.20680000    5.99830000    2.16330000
 C                 13.62790000    4.39790000    3.22460000
 H                 14.48630000    4.14560000    3.47830000
 C                 12.56190000    3.65490000    3.65400000
 H                 12.68800000    2.91660000    4.20490000
 C                 10.28060000    1.51790000    4.48410000
 C                 11.09690000    0.67870000    3.78460000
 H                 11.47060000    0.95840000    2.98140000
 C                 11.35290000   -0.58240000    4.27100000
 H                 11.91600000   -1.14650000    3.78760000
 C                 10.83740000   -1.01810000    5.38790000
 H                 11.02250000   -1.87560000    5.68810000
 C                  9.99920000   -0.17430000    6.13550000
 H                  9.63190000   -0.46320000    6.94010000
 C                  9.73340000    1.08690000    5.64910000
 H                  9.17140000    1.65550000    6.12650000
 C                  8.76670000    2.85700000    2.41100000
 C                  9.26640000    2.20120000    1.28500000
 H                 10.16860000    1.98110000    1.24450000
 C                  8.42880000    1.87560000    0.22370000
 H                  8.76680000    1.41700000   -0.51190000
 C                  7.12470000    2.22870000    0.25970000
 H                  6.56000000    2.01320000   -0.44740000
 C                  6.63260000    2.91660000    1.36760000
 H                  5.73570000    3.16430000    1.39910000
 C                  7.44480000    3.22850000    2.39290000
 H                  7.10050000    3.71000000    3.11050000

 1 2 1.0 6 1.0 30 1.0
 2 3 1.0 7 1.0 64 1.0
 3 4 1.0 7 1.0 98 1.0
 4 5 1.0 18 1.0 132 1.0
 5 18 1.0 166 1.0
 6 8 1.0 19 1.0
 7 29 1.0
 8 9 1.0 17 1.0
 9 10 1.0 11 1.0
 10
 11 12 1.0 13 1.0
 12
 13 14 1.0 15 1.0
 14
 15 16 1.0 17 1.0
 16
 17 18 1.0
 18 19 1.0
 19 20 1.0
 20 21 1.0 29 1.0
 21 22 1.0 23 1.0
 22
 23 24 1.0 25 1.0
 24
 25 26 1.0 27 1.0
 26
 27 28 1.0 29 1.0
 28
 29
 30 31 1.0 42 1.0 53 1.0
 31 32 1.0 40 1.0
 32 33 1.0 34 1.0
 33
 34 35 1.0 36 1.0
 35
 36 37 1.0 38 1.0
 37
 38 39 1.0 40 1.0
 39
 40 41 1.0
 41
 42 43 1.0 51 1.0
 43 44 1.0 45 1.0
 44
 45 46 1.0 47 1.0
 46
 47 48 1.0 49 1.0
 48
 49 50 1.0 51 1.0
 50
 51 52 1.0
 52
 53 54 1.0 62 1.0
 54 55 1.0 56 1.0
 55
 56 57 1.0 58 1.0
 57
 58 59 1.0 60 1.0
 59
 60 61 1.0 62 1.0
 61
 62 63 1.0
 63
 64 65 1.0 76 1.0 87 1.0
 65 66 1.0 74 1.0
 66 67 1.0 68 1.0
 67
 68 69 1.0 70 1.0
 69
 70 71 1.0 72 1.0
 71
 72 73 1.0 74 1.0
 73
 74 75 1.0
 75
 76 77 1.0 85 1.0
 77 78 1.0 79 1.0
 78
 79 80 1.0 81 1.0
 80
 81 82 1.0 83 1.0
 82
 83 84 1.0 85 1.0
 84
 85 86 1.0
 86
 87 88 1.0 96 1.0
 88 89 1.0 90 1.0
 89
 90 91 1.0 92 1.0
 91
 92 93 1.0 94 1.0
 93
 94 95 1.0 96 1.0
 95
 96 97 1.0
 97
 98 99 1.0 110 1.0 121 1.0
 99 100 1.0 108 1.0
 100 101 1.0 102 1.0
 101
 102 103 1.0 104 1.0
 103
 104 105 1.0 106 1.0
 105
 106 107 1.0 108 1.0
 107
 108 109 1.0
 109
 110 111 1.0 119 1.0
 111 112 1.0 113 1.0
 112
 113 114 1.0 115 1.0
 114
 115 116 1.0 117 1.0
 116
 117 118 1.0 119 1.0
 118
 119 120 1.0
 120
 121 122 1.0 130 1.0
 122 123 1.0 124 1.0
 123
 124 125 1.0 126 1.0
 125
 126 127 1.0 128 1.0
 127
 128 129 1.0 130 1.0
 129
 130 131 1.0
 131
 132 133 1.0 144 1.0 155 1.0
 133 134 1.0 142 1.0
 134 135 1.0 136 1.0
 135
 136 137 1.0 138 1.0
 137
 138 139 1.0 140 1.0
 139
 140 141 1.0 142 1.0
 141
 142 143 1.0
 143
 144 145 1.0 153 1.0
 145 146 1.0 147 1.0
 146
 147 148 1.0 149 1.0
 148
 149 150 1.0 151 1.0
 150
 151 152 1.0 153 1.0
 152
 153 154 1.0
 154
 155 156 1.0 164 1.0
 156 157 1.0 158 1.0
 157
 158 159 1.0 160 1.0
 159
 160 161 1.0 162 1.0
 161
 162 163 1.0 164 1.0
 163
 164 165 1.0
 165
 166 167 1.0 178 1.0 189 1.0
 167 168 1.0 176 1.0
 168 169 1.0 170 1.0
 169
 170 171 1.0 172 1.0
 171
 172 173 1.0 174 1.0
 173
 174 175 1.0 176 1.0
 175
 176 177 1.0
 177
 178 179 1.0 187 1.0
 179 180 1.0 181 1.0
 180
 181 182 1.0 183 1.0
 182
 183 184 1.0 185 1.0
 184
 185 186 1.0 187 1.0
 186
 187 188 1.0
 188
 189 190 1.0 198 1.0
 190 191 1.0 192 1.0
 191
 192 193 1.0 194 1.0
 193
 194 195 1.0 196 1.0
 195
 196 197 1.0 198 1.0
 197
 198 199 1.0
 199

C H N P 0
6-31G(d)
****
Au 0
lanl2dz
****

Au 0
lanl2dz





